25
4 0 9
4 1 9
4 2 9
5 3 5
5 4 5
6 0 2
6 3 10
6 4 7
7 0 10
7 5 1
8 0 8
8 1 9
8 3 4
8 4 2
8 5 9
9 0 1
9 1 2
9 3 6
9 6 10
9 8 1
10 2 8
10 4 10
10 6 4
10 7 7
10 8 6
10 9 6
11 0 5
11 2 6
11 5 8
12 2 4
12 6 4
12 8 5
12 11 7
13 7 4
13 11 3
13 12 8
14 1 3
14 4 7
14 6 8
14 9 4
14 12 7
14 13 2
15 1 9
15 4 3
15 6 8
15 9 6
15 14 8
16 2 3
16 4 7
16 5 7
16 6 2
16 7 4
16 8 9
16 9 5
16 10 7
16 15 9
17 2 4
17 3 1
17 10 9
17 11 4
17 13 4
17 14 4
17 15 8
17 16 2
18 0 7
18 1 1
18 2 5
18 8 4
18 10 4
18 11 6
18 13 1
18 15 3
19 3 4
19 10 3
19 11 2
19 15 2
19 16 7
19 17 9
20 2 3
20 6 5
20 8 1
20 10 4
20 11 2
20 13 9
20 17 8
20 18 8
21 0 2
21 1 6
21 3 9
21 6 10
21 7 2
21 10 2
21 11 2
21 15 7
21 16 6
21 17 7
21 19 10
21 20 10
22 0 3
22 3 7
22 4 3
22 5 6
22 7 5
22 8 6
22 10 7
22 14 4
22 17 9
22 20 2
22 21 4
23 0 7
23 1 5
23 3 5
23 6 4
23 7 5
23 11 9
23 15 10
23 17 5
23 18 4
23 19 7
23 21 8
24 0 2
24 3 5
24 5 8
24 6 10
24 7 7
24 9 1
24 10 9
24 11 8
24 13 9
24 14 8
24 15 1
24 17 9
24 18 8
24 20 4
24 21 10
24 22 3
24 23 2
